26 67 34 95 97 100 17 63 55 38 20 51 52 54 84 5 19 76 86 66 25 9 16 2 18 64 65 
59 96 99 92 4 46 98 80 50 61 44 28 90 72 11 22 36 8 14 
12 45 78 58 
6 88 21 33 41 53 15 94 30 35 7 77 85 91 3 
56 32 82 40 81 42 71 87 
31 57 62 74 73 1 69 43 39 70 60 49 89 23 83 68 47 48 24 29 13 79 75 93 10 27 37 

